\ Model Cl_40_Ins_3.lp
\ LP format - for model browsing. Use MPS format to capture full model detail.
Maximize
 
Subject To
 obj1: y[0] = 0
 obj2: y[1] = 0
 obj1_Exp: - y[0] + 94 x[0] + 93 x[1] + 89 x[2] + 85 x[3] + 83 x[4]
   + 79 x[5] + 76 x[6] + 75 x[7] + 73 x[8] + 71 x[9] + 66 x[10] + 63 x[11]
   + 61 x[12] + 56 x[13] + 51 x[14] + 49 x[15] + 47 x[16] + 44 x[17]
   + 44 x[18] + 43 x[19] + 42 x[20] + 39 x[21] + 34 x[22] + 29 x[23]
   + 28 x[24] + 27 x[25] + 26 x[26] + 26 x[27] + 25 x[28] + 25 x[29]
   + 24 x[30] + 22 x[31] + 22 x[32] + 19 x[33] + 12 x[34] + 12 x[35]
   + 11 x[36] + 6 x[37] + 5 x[38] + 5 x[39] = 0
 obj2_Exp: - y[1] + 22 x[0] + 38 x[1] + 13 x[2] + 33 x[3] + 57 x[4]
   + 49 x[5] + 23 x[6] + 77 x[7] + 81 x[8] + 12 x[9] + 61 x[10] + 17 x[11]
   + 56 x[12] + 83 x[13] + 70 x[14] + 18 x[15] + 5 x[16] + 12 x[17]
   + 61 x[18] + 2 x[19] + 19 x[20] + 63 x[21] + 29 x[22] + 93 x[23]
   + 18 x[24] + 89 x[25] + 62 x[26] + 71 x[27] + 52 x[28] + 54 x[29]
   + 49 x[30] + 67 x[31] + 51 x[32] + 9 x[33] + 12 x[34] + 63 x[35]
   + 12 x[36] + 70 x[37] + 92 x[38] + 5 x[39] = 0
 Budget: 104 x[0] + 103 x[1] + 99 x[2] + 95 x[3] + 93 x[4] + 89 x[5]
   + 86 x[6] + 85 x[7] + 83 x[8] + 81 x[9] + 76 x[10] + 73 x[11] + 71 x[12]
   + 66 x[13] + 61 x[14] + 59 x[15] + 57 x[16] + 54 x[17] + 54 x[18]
   + 53 x[19] + 52 x[20] + 49 x[21] + 44 x[22] + 39 x[23] + 38 x[24]
   + 37 x[25] + 36 x[26] + 36 x[27] + 35 x[28] + 35 x[29] + 34 x[30]
   + 32 x[31] + 32 x[32] + 29 x[33] + 22 x[34] + 22 x[35] + 21 x[36]
   + 16 x[37] + 15 x[38] + 15 x[39] <= 840
Bounds
Binaries
 x[0] x[1] x[2] x[3] x[4] x[5] x[6] x[7] x[8] x[9] x[10] x[11] x[12] x[13]
 x[14] x[15] x[16] x[17] x[18] x[19] x[20] x[21] x[22] x[23] x[24] x[25]
 x[26] x[27] x[28] x[29] x[30] x[31] x[32] x[33] x[34] x[35] x[36] x[37]
 x[38] x[39]
Generals
 y[0] y[1]
End
